1013.46,55.87,66.96
1038.65,54.52,65.34
1137.53,49.78,59.66
1181.86,47.91,57.42
962.17,58.85,70.53
998.99,56.68,67.93
1141.7,49.6,59.44
1103.05,51.34,61.53
1090.0,51.95,62.26
1032.62,54.84,65.72
1048.81,53.99,64.71
1042.12,54.34,65.12
1141.06,49.63,59.48
1101.46,51.41,61.61
996.49,56.83,68.1
1146.48,49.39,59.19
1101.38,51.41,61.62
1091.42,51.88,62.18
1265.03,44.76,53.65
1127.31,50.23,60.2
